145 158 157 153 155 156 159 160 154 164 166 167 163 168 162 161 113 112 114 115 116 117 121 120 119 118 106 105 104 103 542 541 543 544 547 546 545 548 549 550 551 101 102 100 99 98 96 95 97 94 93 92 91 555 554 553 552 556 557 558 559 560 561 562 563 564 565 566 567 475 476 477 478 479 480 481 482 483 484 485 486 487 534 535 536 537 539 538 540 187 188 186 185 183 182 178 177 176 175 174 173 108 109 107 110 111 172 170 171 169 180 179 181 184 194 195 196 197 198 199 200 201 165 203 204 202 208 207 206 205 209 210 211 212 213 214 215 216 217 223 224 222 221 220 218 219 193 192 191 190 226 225 189 227 228 229 230 231 533 488 489 532 531 530 233 232 234 235 236 528 529 490 493 524 525 492 491 526 527 512 511 510 509 513 514 515 516 517 522 523 521 520 518 519 497 496 470 495 494 472 473 474 471 469 468 467 466 465 464 463 460 459 462 461 452 453 499 500 501 498 502 503 504 505 308 307 506 507 508 237 240 239 238 246 247 245 244 243 242 248 249 250 251 252 254 253 255 256 257 300 241 301 302 303 304 306 305 318 317 319 320 321 297 298 299 258 259 260 261 262 263 264 265 266 267 268 271 272 269 270 296 295 294 293 291 292 273 274 275 290 289 288 276 277 278 279 282 281 280 287 286 285 284 283 334 335 336 337 338 339 333 332 331 330 340 341 344 343 342 366 329 328 324 322 323 325 326 327 367 365 368 369 370 372 373 371 396 395 394 397 398 399 407 408 406 405 404 400 403 402 401 360 359 358 361 363 364 345 346 362 347 348 349 350 351 352 353 354 355 357 356 412 411 410 418 417 413 414 415 416 419 420 421 422 423 424 425 382 383 384 409 385 386 387 388 389 390 391 393 392 381 380 379 378 377 376 375 374 315 314 316 313 312 309 310 311 451 450 449 448 447 446 442 441 440 439 443 444 445 431 426 427 428 429 430 432 433 434 435 436 437 438 454 455 456 457 458 571 572 573 0 1 2 3 4 5 6 7 8 9 10 11 14 15 16 17 18 570 569 568 19 20 13 12 23 21 24 25 26 27 28 29 22 31 30 32 33 34 35 36 37 38 40 41 39 42 43 44 45 46 47 48 49 54 52 50 51 84 53 55 56 58 57 83 82 85 86 87 90 89 88 78 79 80 81 59 60 61 63 62 64 76 77 75 74 73 122 123 71 72 65 66 67 68 70 69 124 125 126 127 128 138 137 129 130 131 132 133 134 135 136 139 140 141 151 150 149 152 148 147 146 142 143 144